(declare-const term_to_project_onto Real)
(declare-const term_to_project_onto0 Real)
(declare-const term_to_project_onto1 Real)
(assert (exists
         ((|x'?1| Int) (|z'?2| Int) (|y'?3| Int) (K?4 Int) (|y'?5| Int)
            (|z'?6| Int) (z?7 Int) (y?8 Int) (x?9 Int))
         (and (<= (- z?7) 0) (<= (- y?8) 0) (<= (- x?9) 0)
                (<= (+ x?9 -268435454) 0) (= (+ (- |y'?3|) K?4) 0)
                (<= (+ |z'?2| (* -268435455 K?4) (- z?7)) 0)
                (or (and (= K?4 0) (= (+ (- |z'?2|) z?7) 0) (= (- |y'?3|) 0))
                      (and (<= (+ (- K?4) 1) 0) (<= (- z?7) 0)
                             (= (+ |z'?2| -268435455) 0)
                             (<= (+ |y'?3| -268435455) 0)
                             (<= (+ (- |y'?3|) 1) 0))) (<= (- K?4) 0)
                (<= (- |z'?2|) 0) (<= (- |y'?3|) 0)
                (<= (+ (- |y'?3|) 268435455) 0)
                (or (<= (+ (ite (and (<= (- |y'?3|) 0) (<= 0 |y'?3|))
                                (mod |y'?3| 2) (+ (mod |y'?3| 2) -2)) 1) 0)
                      (<= (+ (- (ite (and (<= (- |y'?3|) 0) (<= 0 |y'?3|))
                                     (mod |y'?3| 2) (+ (mod |y'?3| 2) -2))) 1) 0))
                (= (+ |z'?6| (- |z'?2|)) 0) (= (+ |y'?5| (- |y'?3|)) 0)
                (= (+ |x'?1| (- x?9) -1) 0)
                (= term_to_project_onto1 (+ |x'?1| (- x?9)))
                (= term_to_project_onto0 (+ |y'?5| (- y?8)))
                (= term_to_project_onto (+ |z'?6| (- z?7))))))
(check-sat)
